c File: flat50_3_0.col
c
c SOURCE: Joseph Culberson (joe@cs.ualberta.ca)
c DESCRIPTION: Quasi-random coloring problem
c              generated with flatness = 0
c                             probability = 0.139
c                             known coloring = 3
c                             random seed = 1249
c              Creation Date:  Tue Jun  9 12:04:45 1998
c Maximum degree = 8 Minimum degree = 1
c p edge 50 115
c cnf created by edge2cnf
p cnf 150 545
-1 -2 0
-1 -3 0
-2 -3 0
1 2 3 0
-4 -5 0
-4 -6 0
-5 -6 0
4 5 6 0
-7 -8 0
-7 -9 0
-8 -9 0
7 8 9 0
-10 -11 0
-10 -12 0
-11 -12 0
10 11 12 0
-13 -14 0
-13 -15 0
-14 -15 0
13 14 15 0
-16 -17 0
-16 -18 0
-17 -18 0
16 17 18 0
-19 -20 0
-19 -21 0
-20 -21 0
19 20 21 0
-22 -23 0
-22 -24 0
-23 -24 0
22 23 24 0
-25 -26 0
-25 -27 0
-26 -27 0
25 26 27 0
-28 -29 0
-28 -30 0
-29 -30 0
28 29 30 0
-31 -32 0
-31 -33 0
-32 -33 0
31 32 33 0
-34 -35 0
-34 -36 0
-35 -36 0
34 35 36 0
-37 -38 0
-37 -39 0
-38 -39 0
37 38 39 0
-40 -41 0
-40 -42 0
-41 -42 0
40 41 42 0
-43 -44 0
-43 -45 0
-44 -45 0
43 44 45 0
-46 -47 0
-46 -48 0
-47 -48 0
46 47 48 0
-49 -50 0
-49 -51 0
-50 -51 0
49 50 51 0
-52 -53 0
-52 -54 0
-53 -54 0
52 53 54 0
-55 -56 0
-55 -57 0
-56 -57 0
55 56 57 0
-58 -59 0
-58 -60 0
-59 -60 0
58 59 60 0
-61 -62 0
-61 -63 0
-62 -63 0
61 62 63 0
-64 -65 0
-64 -66 0
-65 -66 0
64 65 66 0
-67 -68 0
-67 -69 0
-68 -69 0
67 68 69 0
-70 -71 0
-70 -72 0
-71 -72 0
70 71 72 0
-73 -74 0
-73 -75 0
-74 -75 0
73 74 75 0
-76 -77 0
-76 -78 0
-77 -78 0
76 77 78 0
-79 -80 0
-79 -81 0
-80 -81 0
79 80 81 0
-82 -83 0
-82 -84 0
-83 -84 0
82 83 84 0
-85 -86 0
-85 -87 0
-86 -87 0
85 86 87 0
-88 -89 0
-88 -90 0
-89 -90 0
88 89 90 0
-91 -92 0
-91 -93 0
-92 -93 0
91 92 93 0
-94 -95 0
-94 -96 0
-95 -96 0
94 95 96 0
-97 -98 0
-97 -99 0
-98 -99 0
97 98 99 0
-100 -101 0
-100 -102 0
-101 -102 0
100 101 102 0
-103 -104 0
-103 -105 0
-104 -105 0
103 104 105 0
-106 -107 0
-106 -108 0
-107 -108 0
106 107 108 0
-109 -110 0
-109 -111 0
-110 -111 0
109 110 111 0
-112 -113 0
-112 -114 0
-113 -114 0
112 113 114 0
-115 -116 0
-115 -117 0
-116 -117 0
115 116 117 0
-118 -119 0
-118 -120 0
-119 -120 0
118 119 120 0
-121 -122 0
-121 -123 0
-122 -123 0
121 122 123 0
-124 -125 0
-124 -126 0
-125 -126 0
124 125 126 0
-127 -128 0
-127 -129 0
-128 -129 0
127 128 129 0
-130 -131 0
-130 -132 0
-131 -132 0
130 131 132 0
-133 -134 0
-133 -135 0
-134 -135 0
133 134 135 0
-136 -137 0
-136 -138 0
-137 -138 0
136 137 138 0
-139 -140 0
-139 -141 0
-140 -141 0
139 140 141 0
-142 -143 0
-142 -144 0
-143 -144 0
142 143 144 0
-145 -146 0
-145 -147 0
-146 -147 0
145 146 147 0
-148 -149 0
-148 -150 0
-149 -150 0
148 149 150 0
-64 -1 0
-65 -2 0
-66 -3 0
-91 -1 0
-92 -2 0
-93 -3 0
-136 -1 0
-137 -2 0
-138 -3 0
-148 -1 0
-149 -2 0
-150 -3 0
-64 -4 0
-65 -5 0
-66 -6 0
-97 -4 0
-98 -5 0
-99 -6 0
-130 -4 0
-131 -5 0
-132 -6 0
-52 -7 0
-53 -8 0
-54 -9 0
-61 -7 0
-62 -8 0
-63 -9 0
-73 -7 0
-74 -8 0
-75 -9 0
-106 -7 0
-107 -8 0
-108 -9 0
-127 -7 0
-128 -8 0
-129 -9 0
-88 -10 0
-89 -11 0
-90 -12 0
-112 -10 0
-113 -11 0
-114 -12 0
-118 -10 0
-119 -11 0
-120 -12 0
-64 -13 0
-65 -14 0
-66 -15 0
-70 -13 0
-71 -14 0
-72 -15 0
-82 -13 0
-83 -14 0
-84 -15 0
-124 -13 0
-125 -14 0
-126 -15 0
-127 -13 0
-128 -14 0
-129 -15 0
-130 -13 0
-131 -14 0
-132 -15 0
-148 -13 0
-149 -14 0
-150 -15 0
-82 -16 0
-83 -17 0
-84 -18 0
-145 -16 0
-146 -17 0
-147 -18 0
-52 -19 0
-53 -20 0
-54 -21 0
-76 -19 0
-77 -20 0
-78 -21 0
-82 -19 0
-83 -20 0
-84 -21 0
-94 -19 0
-95 -20 0
-96 -21 0
-133 -19 0
-134 -20 0
-135 -21 0
-145 -19 0
-146 -20 0
-147 -21 0
-73 -22 0
-74 -23 0
-75 -24 0
-100 -22 0
-101 -23 0
-102 -24 0
-52 -25 0
-53 -26 0
-54 -27 0
-61 -25 0
-62 -26 0
-63 -27 0
-73 -25 0
-74 -26 0
-75 -27 0
-103 -25 0
-104 -26 0
-105 -27 0
-133 -25 0
-134 -26 0
-135 -27 0
-136 -25 0
-137 -26 0
-138 -27 0
-139 -25 0
-140 -26 0
-141 -27 0
-61 -28 0
-62 -29 0
-63 -30 0
-79 -28 0
-80 -29 0
-81 -30 0
-82 -28 0
-83 -29 0
-84 -30 0
-109 -28 0
-110 -29 0
-111 -30 0
-118 -28 0
-119 -29 0
-120 -30 0
-139 -28 0
-140 -29 0
-141 -30 0
-58 -31 0
-59 -32 0
-60 -33 0
-94 -31 0
-95 -32 0
-96 -33 0
-100 -31 0
-101 -32 0
-102 -33 0
-139 -31 0
-140 -32 0
-141 -33 0
-145 -31 0
-146 -32 0
-147 -33 0
-148 -31 0
-149 -32 0
-150 -33 0
-121 -34 0
-122 -35 0
-123 -36 0
-127 -34 0
-128 -35 0
-129 -36 0
-133 -34 0
-134 -35 0
-135 -36 0
-70 -37 0
-71 -38 0
-72 -39 0
-118 -37 0
-119 -38 0
-120 -39 0
-145 -37 0
-146 -38 0
-147 -39 0
-70 -40 0
-71 -41 0
-72 -42 0
-97 -40 0
-98 -41 0
-99 -42 0
-115 -40 0
-116 -41 0
-117 -42 0
-127 -40 0
-128 -41 0
-129 -42 0
-139 -40 0
-140 -41 0
-141 -42 0
-58 -43 0
-59 -44 0
-60 -45 0
-67 -43 0
-68 -44 0
-69 -45 0
-97 -43 0
-98 -44 0
-99 -45 0
-109 -43 0
-110 -44 0
-111 -45 0
-67 -46 0
-68 -47 0
-69 -48 0
-76 -46 0
-77 -47 0
-78 -48 0
-97 -46 0
-98 -47 0
-99 -48 0
-106 -46 0
-107 -47 0
-108 -48 0
-64 -49 0
-65 -50 0
-66 -51 0
-67 -49 0
-68 -50 0
-69 -51 0
-73 -49 0
-74 -50 0
-75 -51 0
-91 -49 0
-92 -50 0
-93 -51 0
-109 -49 0
-110 -50 0
-111 -51 0
-115 -49 0
-116 -50 0
-117 -51 0
-118 -49 0
-119 -50 0
-120 -51 0
-130 -49 0
-131 -50 0
-132 -51 0
-103 -52 0
-104 -53 0
-105 -54 0
-115 -52 0
-116 -53 0
-117 -54 0
-136 -52 0
-137 -53 0
-138 -54 0
-142 -52 0
-143 -53 0
-144 -54 0
-112 -55 0
-113 -56 0
-114 -57 0
-121 -58 0
-122 -59 0
-123 -60 0
-130 -58 0
-131 -59 0
-132 -60 0
-109 -61 0
-110 -62 0
-111 -63 0
-124 -64 0
-125 -65 0
-126 -66 0
-115 -67 0
-116 -68 0
-117 -69 0
-145 -67 0
-146 -68 0
-147 -69 0
-115 -70 0
-116 -71 0
-117 -72 0
-136 -70 0
-137 -71 0
-138 -72 0
-139 -70 0
-140 -71 0
-141 -72 0
-118 -73 0
-119 -74 0
-120 -75 0
-139 -73 0
-140 -74 0
-141 -75 0
-148 -73 0
-149 -74 0
-150 -75 0
-148 -76 0
-149 -77 0
-150 -78 0
-106 -79 0
-107 -80 0
-108 -81 0
-115 -79 0
-116 -80 0
-117 -81 0
-118 -79 0
-119 -80 0
-120 -81 0
-121 -79 0
-122 -80 0
-123 -81 0
-109 -82 0
-110 -83 0
-111 -84 0
-121 -82 0
-122 -83 0
-123 -84 0
-130 -82 0
-131 -83 0
-132 -84 0
-127 -85 0
-128 -86 0
-129 -87 0
-121 -88 0
-122 -89 0
-123 -90 0
-124 -88 0
-125 -89 0
-126 -90 0
-142 -91 0
-143 -92 0
-144 -93 0
-148 -91 0
-149 -92 0
-150 -93 0
-106 -94 0
-107 -95 0
-108 -96 0
-142 -94 0
-143 -95 0
-144 -96 0
-103 -97 0
-104 -98 0
-105 -99 0
-118 -97 0
-119 -98 0
-120 -99 0
-133 -97 0
-134 -98 0
-135 -99 0
-136 -97 0
-137 -98 0
-138 -99 0
-133 -100 0
-134 -101 0
-135 -102 0
